% Auto-generated by scripts/generate_dzn.py
% problem_type   = polyominoes
% instance       = polyominoes_61
% source_json    = instances_json/0_low_blowup/polyominoes_61.json
% blowup         = 0.6310272536687631
% representation = DFA

mode = 0;

size = 6;
tiles = 4;
n_expressions = 4;
Q = 123;
S = 5;
q0 = [1, 1, 1, 1];
F = [{35}, {35}, {122}, {23}];
weights = [1, 5, 4, 3, 9, 5, 10, 3, 5, 6, 4, 4, 2, 1, 4, 10, 3, 10, 10, 4, 2, 5, 9, 8, 3, 2, 7, 7, 1, 3, 10, 2, 1, 7, 1, 10];
d_dfa = array3d(1..4, 1..123, 1..5, [
  % k = 1
    2, 1, 1, 1, 1,
    4, 3, 3, 3, 3,
    71, 5, 5, 5, 5,
    7, 6, 6, 6, 6,
    71, 8, 8, 8, 8,
    71, 9, 9, 9, 9,
    11, 10, 10, 10, 10,
    71, 12, 12, 12, 12,
    71, 13, 13, 13, 13,
    71, 14, 14, 14, 14,
    15, 71, 71, 71, 71,
    71, 16, 16, 16, 16,
    71, 17, 17, 17, 17,
    19, 18, 18, 18, 18,
    71, 20, 20, 20, 20,
    71, 21, 21, 21, 21,
    71, 22, 22, 22, 22,
    71, 23, 23, 23, 23,
    24, 71, 71, 71, 71,
    71, 25, 25, 25, 25,
    26, 71, 71, 71, 71,
    27, 71, 71, 71, 71,
    19, 71, 71, 71, 71,
    28, 71, 71, 71, 71,
    28, 29, 29, 29, 29,
    71, 30, 30, 30, 30,
    31, 71, 71, 71, 71,
    32, 71, 71, 71, 71,
    71, 24, 24, 24, 24,
    71, 33, 33, 33, 33,
    71, 34, 34, 34, 34,
    35, 71, 71, 71, 71,
    71, 36, 36, 36, 36,
    71, 37, 37, 37, 37,
    71, 35, 35, 35, 35,
    71, 38, 38, 38, 38,
    71, 39, 39, 39, 39,
    71, 40, 40, 40, 40,
    71, 41, 41, 41, 41,
    43, 42, 42, 42, 42,
    71, 44, 44, 44, 44,
    43, 71, 71, 71, 71,
    45, 71, 71, 71, 71,
    46, 71, 71, 71, 71,
    71, 47, 47, 47, 47,
    48, 71, 71, 71, 71,
    71, 49, 49, 49, 49,
    71, 50, 50, 50, 50,
    71, 51, 51, 51, 51,
    71, 52, 52, 52, 52,
    71, 53, 53, 53, 53,
    71, 54, 54, 54, 54,
    71, 55, 55, 55, 55,
    71, 56, 56, 56, 56,
    57, 71, 71, 71, 71,
    71, 58, 58, 58, 58,
    59, 71, 71, 71, 71,
    61, 60, 60, 60, 60,
    71, 62, 62, 62, 62,
    61, 71, 71, 71, 71,
    71, 63, 63, 63, 63,
    71, 64, 64, 64, 64,
    71, 65, 65, 65, 65,
    71, 66, 66, 66, 66,
    71, 67, 67, 67, 67,
    71, 68, 68, 68, 68,
    71, 69, 69, 69, 69,
    71, 28, 28, 28, 28,
    71, 70, 70, 70, 70,
    71, 32, 32, 32, 32,
    71, 71, 71, 71, 71,
    0, 0, 0, 0, 0,
    0, 0, 0, 0, 0,
    0, 0, 0, 0, 0,
    0, 0, 0, 0, 0,
    0, 0, 0, 0, 0,
    0, 0, 0, 0, 0,
    0, 0, 0, 0, 0,
    0, 0, 0, 0, 0,
    0, 0, 0, 0, 0,
    0, 0, 0, 0, 0,
    0, 0, 0, 0, 0,
    0, 0, 0, 0, 0,
    0, 0, 0, 0, 0,
    0, 0, 0, 0, 0,
    0, 0, 0, 0, 0,
    0, 0, 0, 0, 0,
    0, 0, 0, 0, 0,
    0, 0, 0, 0, 0,
    0, 0, 0, 0, 0,
    0, 0, 0, 0, 0,
    0, 0, 0, 0, 0,
    0, 0, 0, 0, 0,
    0, 0, 0, 0, 0,
    0, 0, 0, 0, 0,
    0, 0, 0, 0, 0,
    0, 0, 0, 0, 0,
    0, 0, 0, 0, 0,
    0, 0, 0, 0, 0,
    0, 0, 0, 0, 0,
    0, 0, 0, 0, 0,
    0, 0, 0, 0, 0,
    0, 0, 0, 0, 0,
    0, 0, 0, 0, 0,
    0, 0, 0, 0, 0,
    0, 0, 0, 0, 0,
    0, 0, 0, 0, 0,
    0, 0, 0, 0, 0,
    0, 0, 0, 0, 0,
    0, 0, 0, 0, 0,
    0, 0, 0, 0, 0,
    0, 0, 0, 0, 0,
    0, 0, 0, 0, 0,
    0, 0, 0, 0, 0,
    0, 0, 0, 0, 0,
    0, 0, 0, 0, 0,
    0, 0, 0, 0, 0,
    0, 0, 0, 0, 0,
    0, 0, 0, 0, 0,
    0, 0, 0, 0, 0,
    0, 0, 0, 0, 0,
    0, 0, 0, 0, 0,
    0, 0, 0, 0, 0,

  % k = 2
    1, 2, 1, 1, 1,
    3, 4, 3, 3, 3,
    5, 71, 5, 5, 5,
    6, 7, 6, 6, 6,
    8, 71, 8, 8, 8,
    9, 71, 9, 9, 9,
    10, 11, 10, 10, 10,
    12, 71, 12, 12, 12,
    13, 71, 13, 13, 13,
    14, 71, 14, 14, 14,
    71, 15, 71, 71, 71,
    16, 71, 16, 16, 16,
    17, 71, 17, 17, 17,
    18, 19, 18, 18, 18,
    20, 71, 20, 20, 20,
    21, 71, 21, 21, 21,
    22, 71, 22, 22, 22,
    23, 71, 23, 23, 23,
    71, 24, 71, 71, 71,
    25, 71, 25, 25, 25,
    71, 26, 71, 71, 71,
    71, 27, 71, 71, 71,
    71, 19, 71, 71, 71,
    71, 28, 71, 71, 71,
    29, 28, 29, 29, 29,
    30, 71, 30, 30, 30,
    71, 31, 71, 71, 71,
    71, 32, 71, 71, 71,
    24, 71, 24, 24, 24,
    33, 71, 33, 33, 33,
    34, 71, 34, 34, 34,
    71, 35, 71, 71, 71,
    36, 71, 36, 36, 36,
    37, 71, 37, 37, 37,
    35, 71, 35, 35, 35,
    38, 71, 38, 38, 38,
    39, 71, 39, 39, 39,
    40, 71, 40, 40, 40,
    41, 71, 41, 41, 41,
    42, 43, 42, 42, 42,
    44, 71, 44, 44, 44,
    71, 43, 71, 71, 71,
    71, 45, 71, 71, 71,
    71, 46, 71, 71, 71,
    47, 71, 47, 47, 47,
    71, 48, 71, 71, 71,
    49, 71, 49, 49, 49,
    50, 71, 50, 50, 50,
    51, 71, 51, 51, 51,
    52, 71, 52, 52, 52,
    53, 71, 53, 53, 53,
    54, 71, 54, 54, 54,
    55, 71, 55, 55, 55,
    56, 71, 56, 56, 56,
    71, 57, 71, 71, 71,
    58, 71, 58, 58, 58,
    71, 59, 71, 71, 71,
    60, 61, 60, 60, 60,
    62, 71, 62, 62, 62,
    71, 61, 71, 71, 71,
    63, 71, 63, 63, 63,
    64, 71, 64, 64, 64,
    65, 71, 65, 65, 65,
    66, 71, 66, 66, 66,
    67, 71, 67, 67, 67,
    68, 71, 68, 68, 68,
    69, 71, 69, 69, 69,
    28, 71, 28, 28, 28,
    70, 71, 70, 70, 70,
    32, 71, 32, 32, 32,
    71, 71, 71, 71, 71,
    0, 0, 0, 0, 0,
    0, 0, 0, 0, 0,
    0, 0, 0, 0, 0,
    0, 0, 0, 0, 0,
    0, 0, 0, 0, 0,
    0, 0, 0, 0, 0,
    0, 0, 0, 0, 0,
    0, 0, 0, 0, 0,
    0, 0, 0, 0, 0,
    0, 0, 0, 0, 0,
    0, 0, 0, 0, 0,
    0, 0, 0, 0, 0,
    0, 0, 0, 0, 0,
    0, 0, 0, 0, 0,
    0, 0, 0, 0, 0,
    0, 0, 0, 0, 0,
    0, 0, 0, 0, 0,
    0, 0, 0, 0, 0,
    0, 0, 0, 0, 0,
    0, 0, 0, 0, 0,
    0, 0, 0, 0, 0,
    0, 0, 0, 0, 0,
    0, 0, 0, 0, 0,
    0, 0, 0, 0, 0,
    0, 0, 0, 0, 0,
    0, 0, 0, 0, 0,
    0, 0, 0, 0, 0,
    0, 0, 0, 0, 0,
    0, 0, 0, 0, 0,
    0, 0, 0, 0, 0,
    0, 0, 0, 0, 0,
    0, 0, 0, 0, 0,
    0, 0, 0, 0, 0,
    0, 0, 0, 0, 0,
    0, 0, 0, 0, 0,
    0, 0, 0, 0, 0,
    0, 0, 0, 0, 0,
    0, 0, 0, 0, 0,
    0, 0, 0, 0, 0,
    0, 0, 0, 0, 0,
    0, 0, 0, 0, 0,
    0, 0, 0, 0, 0,
    0, 0, 0, 0, 0,
    0, 0, 0, 0, 0,
    0, 0, 0, 0, 0,
    0, 0, 0, 0, 0,
    0, 0, 0, 0, 0,
    0, 0, 0, 0, 0,
    0, 0, 0, 0, 0,
    0, 0, 0, 0, 0,
    0, 0, 0, 0, 0,
    0, 0, 0, 0, 0,

  % k = 3
    1, 1, 2, 1, 1,
    4, 4, 3, 4, 4,
    123, 123, 5, 123, 123,
    6, 6, 123, 6, 6,
    123, 123, 7, 123, 123,
    8, 8, 123, 8, 8,
    123, 123, 9, 123, 123,
    10, 10, 123, 10, 10,
    123, 123, 11, 123, 123,
    13, 13, 12, 13, 13,
    14, 14, 123, 14, 14,
    123, 123, 15, 123, 123,
    16, 16, 123, 16, 16,
    17, 17, 123, 17, 17,
    123, 123, 18, 123, 123,
    123, 123, 19, 123, 123,
    123, 123, 20, 123, 123,
    21, 21, 123, 21, 21,
    23, 23, 22, 23, 23,
    123, 123, 24, 123, 123,
    25, 25, 123, 25, 25,
    123, 123, 26, 123, 123,
    27, 27, 123, 27, 27,
    123, 123, 28, 123, 123,
    30, 30, 29, 30, 30,
    31, 31, 123, 31, 31,
    32, 32, 123, 32, 32,
    123, 123, 33, 123, 123,
    123, 123, 34, 123, 123,
    35, 35, 123, 35, 35,
    36, 36, 123, 36, 36,
    37, 37, 123, 37, 37,
    38, 38, 123, 38, 38,
    123, 123, 39, 123, 123,
    123, 123, 40, 123, 123,
    41, 41, 123, 41, 41,
    43, 43, 42, 43, 43,
    44, 44, 123, 44, 44,
    123, 123, 45, 123, 123,
    123, 123, 46, 123, 123,
    47, 47, 123, 47, 47,
    123, 123, 48, 123, 123,
    123, 123, 42, 123, 123,
    49, 49, 123, 49, 49,
    123, 123, 50, 123, 123,
    123, 123, 51, 123, 123,
    123, 123, 52, 123, 123,
    123, 123, 53, 123, 123,
    123, 123, 54, 123, 123,
    55, 55, 123, 55, 55,
    56, 56, 123, 56, 56,
    123, 123, 57, 123, 123,
    123, 123, 58, 123, 123,
    123, 123, 59, 123, 123,
    60, 60, 123, 60, 60,
    61, 61, 123, 61, 61,
    123, 123, 62, 123, 123,
    63, 63, 123, 63, 63,
    123, 123, 64, 123, 123,
    65, 65, 123, 65, 65,
    123, 123, 66, 123, 123,
    68, 68, 67, 68, 68,
    69, 69, 123, 69, 69,
    123, 123, 70, 123, 123,
    71, 71, 123, 71, 71,
    123, 123, 71, 123, 123,
    123, 123, 72, 123, 123,
    73, 73, 123, 73, 73,
    74, 74, 123, 74, 74,
    75, 75, 123, 75, 75,
    123, 123, 76, 123, 123,
    77, 77, 123, 77, 77,
    78, 78, 123, 78, 78,
    123, 123, 79, 123, 123,
    80, 80, 123, 80, 80,
    123, 123, 81, 123, 123,
    82, 82, 123, 82, 82,
    83, 83, 123, 83, 83,
    123, 123, 84, 123, 123,
    85, 85, 123, 85, 85,
    123, 123, 86, 123, 123,
    123, 123, 87, 123, 123,
    123, 123, 88, 123, 123,
    123, 123, 89, 123, 123,
    90, 90, 123, 90, 90,
    91, 91, 123, 91, 91,
    123, 123, 92, 123, 123,
    123, 123, 93, 123, 123,
    123, 123, 94, 123, 123,
    96, 96, 95, 96, 96,
    97, 97, 123, 97, 97,
    123, 123, 98, 123, 123,
    123, 123, 99, 123, 123,
    100, 100, 123, 100, 100,
    101, 101, 123, 101, 101,
    123, 123, 95, 123, 123,
    102, 102, 123, 102, 102,
    103, 103, 123, 103, 103,
    123, 123, 104, 123, 123,
    105, 105, 123, 105, 105,
    106, 106, 123, 106, 106,
    107, 107, 123, 107, 107,
    108, 108, 123, 108, 108,
    123, 123, 108, 123, 123,
    123, 123, 109, 123, 123,
    110, 110, 123, 110, 110,
    123, 123, 111, 123, 123,
    112, 112, 123, 112, 112,
    123, 123, 113, 123, 123,
    114, 114, 123, 114, 114,
    123, 123, 96, 123, 123,
    115, 115, 123, 115, 115,
    123, 123, 116, 123, 123,
    117, 117, 123, 117, 117,
    123, 123, 118, 123, 123,
    123, 123, 119, 123, 123,
    120, 120, 123, 120, 120,
    123, 123, 121, 123, 123,
    123, 123, 120, 123, 123,
    123, 123, 122, 123, 123,
    123, 123, 106, 123, 123,
    122, 122, 123, 122, 122,
    123, 123, 123, 123, 123,

  % k = 4
    1, 1, 1, 2, 1,
    3, 3, 3, 4, 3,
    5, 5, 5, 36, 5,
    6, 6, 6, 7, 6,
    8, 8, 8, 36, 8,
    9, 9, 9, 36, 9,
    10, 10, 10, 36, 10,
    11, 11, 11, 36, 11,
    12, 12, 12, 36, 12,
    13, 13, 13, 36, 13,
    14, 14, 14, 15, 14,
    16, 16, 16, 36, 16,
    17, 17, 17, 36, 17,
    18, 18, 18, 36, 18,
    36, 36, 36, 19, 36,
    20, 20, 20, 36, 20,
    21, 21, 21, 36, 21,
    36, 36, 36, 22, 36,
    36, 36, 36, 23, 36,
    24, 24, 24, 25, 24,
    26, 26, 26, 23, 26,
    27, 27, 27, 19, 27,
    23, 23, 23, 36, 23,
    36, 36, 36, 25, 36,
    28, 28, 28, 36, 28,
    19, 19, 19, 36, 19,
    29, 29, 29, 36, 29,
    30, 30, 30, 36, 30,
    31, 31, 31, 36, 31,
    32, 32, 32, 36, 32,
    33, 33, 33, 36, 33,
    34, 34, 34, 36, 34,
    35, 35, 35, 36, 35,
    26, 26, 26, 36, 26,
    15, 15, 15, 19, 15,
    36, 36, 36, 36, 36,
    0, 0, 0, 0, 0,
    0, 0, 0, 0, 0,
    0, 0, 0, 0, 0,
    0, 0, 0, 0, 0,
    0, 0, 0, 0, 0,
    0, 0, 0, 0, 0,
    0, 0, 0, 0, 0,
    0, 0, 0, 0, 0,
    0, 0, 0, 0, 0,
    0, 0, 0, 0, 0,
    0, 0, 0, 0, 0,
    0, 0, 0, 0, 0,
    0, 0, 0, 0, 0,
    0, 0, 0, 0, 0,
    0, 0, 0, 0, 0,
    0, 0, 0, 0, 0,
    0, 0, 0, 0, 0,
    0, 0, 0, 0, 0,
    0, 0, 0, 0, 0,
    0, 0, 0, 0, 0,
    0, 0, 0, 0, 0,
    0, 0, 0, 0, 0,
    0, 0, 0, 0, 0,
    0, 0, 0, 0, 0,
    0, 0, 0, 0, 0,
    0, 0, 0, 0, 0,
    0, 0, 0, 0, 0,
    0, 0, 0, 0, 0,
    0, 0, 0, 0, 0,
    0, 0, 0, 0, 0,
    0, 0, 0, 0, 0,
    0, 0, 0, 0, 0,
    0, 0, 0, 0, 0,
    0, 0, 0, 0, 0,
    0, 0, 0, 0, 0,
    0, 0, 0, 0, 0,
    0, 0, 0, 0, 0,
    0, 0, 0, 0, 0,
    0, 0, 0, 0, 0,
    0, 0, 0, 0, 0,
    0, 0, 0, 0, 0,
    0, 0, 0, 0, 0,
    0, 0, 0, 0, 0,
    0, 0, 0, 0, 0,
    0, 0, 0, 0, 0,
    0, 0, 0, 0, 0,
    0, 0, 0, 0, 0,
    0, 0, 0, 0, 0,
    0, 0, 0, 0, 0,
    0, 0, 0, 0, 0,
    0, 0, 0, 0, 0,
    0, 0, 0, 0, 0,
    0, 0, 0, 0, 0,
    0, 0, 0, 0, 0,
    0, 0, 0, 0, 0,
    0, 0, 0, 0, 0,
    0, 0, 0, 0, 0,
    0, 0, 0, 0, 0,
    0, 0, 0, 0, 0,
    0, 0, 0, 0, 0,
    0, 0, 0, 0, 0,
    0, 0, 0, 0, 0,
    0, 0, 0, 0, 0,
    0, 0, 0, 0, 0,
    0, 0, 0, 0, 0,
    0, 0, 0, 0, 0,
    0, 0, 0, 0, 0,
    0, 0, 0, 0, 0,
    0, 0, 0, 0, 0,
    0, 0, 0, 0, 0,
    0, 0, 0, 0, 0,
    0, 0, 0, 0, 0,
    0, 0, 0, 0, 0,
    0, 0, 0, 0, 0,
    0, 0, 0, 0, 0,
    0, 0, 0, 0, 0,
    0, 0, 0, 0, 0,
    0, 0, 0, 0, 0,
    0, 0, 0, 0, 0,
    0, 0, 0, 0, 0,
    0, 0, 0, 0, 0,
    0, 0, 0, 0, 0,
    0, 0, 0, 0, 0,
    0, 0, 0, 0, 0,
    0, 0, 0, 0, 0,
    0, 0, 0, 0, 0,
    0, 0, 0, 0, 0
]);
d_nfa = array3d(1..4, 1..123, 1..5, [
  % k = 1
    {}, {}, {}, {}, {},
    {}, {}, {}, {}, {},
    {}, {}, {}, {}, {},
    {}, {}, {}, {}, {},
    {}, {}, {}, {}, {},
    {}, {}, {}, {}, {},
    {}, {}, {}, {}, {},
    {}, {}, {}, {}, {},
    {}, {}, {}, {}, {},
    {}, {}, {}, {}, {},
    {}, {}, {}, {}, {},
    {}, {}, {}, {}, {},
    {}, {}, {}, {}, {},
    {}, {}, {}, {}, {},
    {}, {}, {}, {}, {},
    {}, {}, {}, {}, {},
    {}, {}, {}, {}, {},
    {}, {}, {}, {}, {},
    {}, {}, {}, {}, {},
    {}, {}, {}, {}, {},
    {}, {}, {}, {}, {},
    {}, {}, {}, {}, {},
    {}, {}, {}, {}, {},
    {}, {}, {}, {}, {},
    {}, {}, {}, {}, {},
    {}, {}, {}, {}, {},
    {}, {}, {}, {}, {},
    {}, {}, {}, {}, {},
    {}, {}, {}, {}, {},
    {}, {}, {}, {}, {},
    {}, {}, {}, {}, {},
    {}, {}, {}, {}, {},
    {}, {}, {}, {}, {},
    {}, {}, {}, {}, {},
    {}, {}, {}, {}, {},
    {}, {}, {}, {}, {},
    {}, {}, {}, {}, {},
    {}, {}, {}, {}, {},
    {}, {}, {}, {}, {},
    {}, {}, {}, {}, {},
    {}, {}, {}, {}, {},
    {}, {}, {}, {}, {},
    {}, {}, {}, {}, {},
    {}, {}, {}, {}, {},
    {}, {}, {}, {}, {},
    {}, {}, {}, {}, {},
    {}, {}, {}, {}, {},
    {}, {}, {}, {}, {},
    {}, {}, {}, {}, {},
    {}, {}, {}, {}, {},
    {}, {}, {}, {}, {},
    {}, {}, {}, {}, {},
    {}, {}, {}, {}, {},
    {}, {}, {}, {}, {},
    {}, {}, {}, {}, {},
    {}, {}, {}, {}, {},
    {}, {}, {}, {}, {},
    {}, {}, {}, {}, {},
    {}, {}, {}, {}, {},
    {}, {}, {}, {}, {},
    {}, {}, {}, {}, {},
    {}, {}, {}, {}, {},
    {}, {}, {}, {}, {},
    {}, {}, {}, {}, {},
    {}, {}, {}, {}, {},
    {}, {}, {}, {}, {},
    {}, {}, {}, {}, {},
    {}, {}, {}, {}, {},
    {}, {}, {}, {}, {},
    {}, {}, {}, {}, {},
    {}, {}, {}, {}, {},
    {}, {}, {}, {}, {},
    {}, {}, {}, {}, {},
    {}, {}, {}, {}, {},
    {}, {}, {}, {}, {},
    {}, {}, {}, {}, {},
    {}, {}, {}, {}, {},
    {}, {}, {}, {}, {},
    {}, {}, {}, {}, {},
    {}, {}, {}, {}, {},
    {}, {}, {}, {}, {},
    {}, {}, {}, {}, {},
    {}, {}, {}, {}, {},
    {}, {}, {}, {}, {},
    {}, {}, {}, {}, {},
    {}, {}, {}, {}, {},
    {}, {}, {}, {}, {},
    {}, {}, {}, {}, {},
    {}, {}, {}, {}, {},
    {}, {}, {}, {}, {},
    {}, {}, {}, {}, {},
    {}, {}, {}, {}, {},
    {}, {}, {}, {}, {},
    {}, {}, {}, {}, {},
    {}, {}, {}, {}, {},
    {}, {}, {}, {}, {},
    {}, {}, {}, {}, {},
    {}, {}, {}, {}, {},
    {}, {}, {}, {}, {},
    {}, {}, {}, {}, {},
    {}, {}, {}, {}, {},
    {}, {}, {}, {}, {},
    {}, {}, {}, {}, {},
    {}, {}, {}, {}, {},
    {}, {}, {}, {}, {},
    {}, {}, {}, {}, {},
    {}, {}, {}, {}, {},
    {}, {}, {}, {}, {},
    {}, {}, {}, {}, {},
    {}, {}, {}, {}, {},
    {}, {}, {}, {}, {},
    {}, {}, {}, {}, {},
    {}, {}, {}, {}, {},
    {}, {}, {}, {}, {},
    {}, {}, {}, {}, {},
    {}, {}, {}, {}, {},
    {}, {}, {}, {}, {},
    {}, {}, {}, {}, {},
    {}, {}, {}, {}, {},
    {}, {}, {}, {}, {},
    {}, {}, {}, {}, {},
    {}, {}, {}, {}, {},
    {}, {}, {}, {}, {},

  % k = 2
    {}, {}, {}, {}, {},
    {}, {}, {}, {}, {},
    {}, {}, {}, {}, {},
    {}, {}, {}, {}, {},
    {}, {}, {}, {}, {},
    {}, {}, {}, {}, {},
    {}, {}, {}, {}, {},
    {}, {}, {}, {}, {},
    {}, {}, {}, {}, {},
    {}, {}, {}, {}, {},
    {}, {}, {}, {}, {},
    {}, {}, {}, {}, {},
    {}, {}, {}, {}, {},
    {}, {}, {}, {}, {},
    {}, {}, {}, {}, {},
    {}, {}, {}, {}, {},
    {}, {}, {}, {}, {},
    {}, {}, {}, {}, {},
    {}, {}, {}, {}, {},
    {}, {}, {}, {}, {},
    {}, {}, {}, {}, {},
    {}, {}, {}, {}, {},
    {}, {}, {}, {}, {},
    {}, {}, {}, {}, {},
    {}, {}, {}, {}, {},
    {}, {}, {}, {}, {},
    {}, {}, {}, {}, {},
    {}, {}, {}, {}, {},
    {}, {}, {}, {}, {},
    {}, {}, {}, {}, {},
    {}, {}, {}, {}, {},
    {}, {}, {}, {}, {},
    {}, {}, {}, {}, {},
    {}, {}, {}, {}, {},
    {}, {}, {}, {}, {},
    {}, {}, {}, {}, {},
    {}, {}, {}, {}, {},
    {}, {}, {}, {}, {},
    {}, {}, {}, {}, {},
    {}, {}, {}, {}, {},
    {}, {}, {}, {}, {},
    {}, {}, {}, {}, {},
    {}, {}, {}, {}, {},
    {}, {}, {}, {}, {},
    {}, {}, {}, {}, {},
    {}, {}, {}, {}, {},
    {}, {}, {}, {}, {},
    {}, {}, {}, {}, {},
    {}, {}, {}, {}, {},
    {}, {}, {}, {}, {},
    {}, {}, {}, {}, {},
    {}, {}, {}, {}, {},
    {}, {}, {}, {}, {},
    {}, {}, {}, {}, {},
    {}, {}, {}, {}, {},
    {}, {}, {}, {}, {},
    {}, {}, {}, {}, {},
    {}, {}, {}, {}, {},
    {}, {}, {}, {}, {},
    {}, {}, {}, {}, {},
    {}, {}, {}, {}, {},
    {}, {}, {}, {}, {},
    {}, {}, {}, {}, {},
    {}, {}, {}, {}, {},
    {}, {}, {}, {}, {},
    {}, {}, {}, {}, {},
    {}, {}, {}, {}, {},
    {}, {}, {}, {}, {},
    {}, {}, {}, {}, {},
    {}, {}, {}, {}, {},
    {}, {}, {}, {}, {},
    {}, {}, {}, {}, {},
    {}, {}, {}, {}, {},
    {}, {}, {}, {}, {},
    {}, {}, {}, {}, {},
    {}, {}, {}, {}, {},
    {}, {}, {}, {}, {},
    {}, {}, {}, {}, {},
    {}, {}, {}, {}, {},
    {}, {}, {}, {}, {},
    {}, {}, {}, {}, {},
    {}, {}, {}, {}, {},
    {}, {}, {}, {}, {},
    {}, {}, {}, {}, {},
    {}, {}, {}, {}, {},
    {}, {}, {}, {}, {},
    {}, {}, {}, {}, {},
    {}, {}, {}, {}, {},
    {}, {}, {}, {}, {},
    {}, {}, {}, {}, {},
    {}, {}, {}, {}, {},
    {}, {}, {}, {}, {},
    {}, {}, {}, {}, {},
    {}, {}, {}, {}, {},
    {}, {}, {}, {}, {},
    {}, {}, {}, {}, {},
    {}, {}, {}, {}, {},
    {}, {}, {}, {}, {},
    {}, {}, {}, {}, {},
    {}, {}, {}, {}, {},
    {}, {}, {}, {}, {},
    {}, {}, {}, {}, {},
    {}, {}, {}, {}, {},
    {}, {}, {}, {}, {},
    {}, {}, {}, {}, {},
    {}, {}, {}, {}, {},
    {}, {}, {}, {}, {},
    {}, {}, {}, {}, {},
    {}, {}, {}, {}, {},
    {}, {}, {}, {}, {},
    {}, {}, {}, {}, {},
    {}, {}, {}, {}, {},
    {}, {}, {}, {}, {},
    {}, {}, {}, {}, {},
    {}, {}, {}, {}, {},
    {}, {}, {}, {}, {},
    {}, {}, {}, {}, {},
    {}, {}, {}, {}, {},
    {}, {}, {}, {}, {},
    {}, {}, {}, {}, {},
    {}, {}, {}, {}, {},
    {}, {}, {}, {}, {},
    {}, {}, {}, {}, {},

  % k = 3
    {}, {}, {}, {}, {},
    {}, {}, {}, {}, {},
    {}, {}, {}, {}, {},
    {}, {}, {}, {}, {},
    {}, {}, {}, {}, {},
    {}, {}, {}, {}, {},
    {}, {}, {}, {}, {},
    {}, {}, {}, {}, {},
    {}, {}, {}, {}, {},
    {}, {}, {}, {}, {},
    {}, {}, {}, {}, {},
    {}, {}, {}, {}, {},
    {}, {}, {}, {}, {},
    {}, {}, {}, {}, {},
    {}, {}, {}, {}, {},
    {}, {}, {}, {}, {},
    {}, {}, {}, {}, {},
    {}, {}, {}, {}, {},
    {}, {}, {}, {}, {},
    {}, {}, {}, {}, {},
    {}, {}, {}, {}, {},
    {}, {}, {}, {}, {},
    {}, {}, {}, {}, {},
    {}, {}, {}, {}, {},
    {}, {}, {}, {}, {},
    {}, {}, {}, {}, {},
    {}, {}, {}, {}, {},
    {}, {}, {}, {}, {},
    {}, {}, {}, {}, {},
    {}, {}, {}, {}, {},
    {}, {}, {}, {}, {},
    {}, {}, {}, {}, {},
    {}, {}, {}, {}, {},
    {}, {}, {}, {}, {},
    {}, {}, {}, {}, {},
    {}, {}, {}, {}, {},
    {}, {}, {}, {}, {},
    {}, {}, {}, {}, {},
    {}, {}, {}, {}, {},
    {}, {}, {}, {}, {},
    {}, {}, {}, {}, {},
    {}, {}, {}, {}, {},
    {}, {}, {}, {}, {},
    {}, {}, {}, {}, {},
    {}, {}, {}, {}, {},
    {}, {}, {}, {}, {},
    {}, {}, {}, {}, {},
    {}, {}, {}, {}, {},
    {}, {}, {}, {}, {},
    {}, {}, {}, {}, {},
    {}, {}, {}, {}, {},
    {}, {}, {}, {}, {},
    {}, {}, {}, {}, {},
    {}, {}, {}, {}, {},
    {}, {}, {}, {}, {},
    {}, {}, {}, {}, {},
    {}, {}, {}, {}, {},
    {}, {}, {}, {}, {},
    {}, {}, {}, {}, {},
    {}, {}, {}, {}, {},
    {}, {}, {}, {}, {},
    {}, {}, {}, {}, {},
    {}, {}, {}, {}, {},
    {}, {}, {}, {}, {},
    {}, {}, {}, {}, {},
    {}, {}, {}, {}, {},
    {}, {}, {}, {}, {},
    {}, {}, {}, {}, {},
    {}, {}, {}, {}, {},
    {}, {}, {}, {}, {},
    {}, {}, {}, {}, {},
    {}, {}, {}, {}, {},
    {}, {}, {}, {}, {},
    {}, {}, {}, {}, {},
    {}, {}, {}, {}, {},
    {}, {}, {}, {}, {},
    {}, {}, {}, {}, {},
    {}, {}, {}, {}, {},
    {}, {}, {}, {}, {},
    {}, {}, {}, {}, {},
    {}, {}, {}, {}, {},
    {}, {}, {}, {}, {},
    {}, {}, {}, {}, {},
    {}, {}, {}, {}, {},
    {}, {}, {}, {}, {},
    {}, {}, {}, {}, {},
    {}, {}, {}, {}, {},
    {}, {}, {}, {}, {},
    {}, {}, {}, {}, {},
    {}, {}, {}, {}, {},
    {}, {}, {}, {}, {},
    {}, {}, {}, {}, {},
    {}, {}, {}, {}, {},
    {}, {}, {}, {}, {},
    {}, {}, {}, {}, {},
    {}, {}, {}, {}, {},
    {}, {}, {}, {}, {},
    {}, {}, {}, {}, {},
    {}, {}, {}, {}, {},
    {}, {}, {}, {}, {},
    {}, {}, {}, {}, {},
    {}, {}, {}, {}, {},
    {}, {}, {}, {}, {},
    {}, {}, {}, {}, {},
    {}, {}, {}, {}, {},
    {}, {}, {}, {}, {},
    {}, {}, {}, {}, {},
    {}, {}, {}, {}, {},
    {}, {}, {}, {}, {},
    {}, {}, {}, {}, {},
    {}, {}, {}, {}, {},
    {}, {}, {}, {}, {},
    {}, {}, {}, {}, {},
    {}, {}, {}, {}, {},
    {}, {}, {}, {}, {},
    {}, {}, {}, {}, {},
    {}, {}, {}, {}, {},
    {}, {}, {}, {}, {},
    {}, {}, {}, {}, {},
    {}, {}, {}, {}, {},
    {}, {}, {}, {}, {},
    {}, {}, {}, {}, {},
    {}, {}, {}, {}, {},

  % k = 4
    {}, {}, {}, {}, {},
    {}, {}, {}, {}, {},
    {}, {}, {}, {}, {},
    {}, {}, {}, {}, {},
    {}, {}, {}, {}, {},
    {}, {}, {}, {}, {},
    {}, {}, {}, {}, {},
    {}, {}, {}, {}, {},
    {}, {}, {}, {}, {},
    {}, {}, {}, {}, {},
    {}, {}, {}, {}, {},
    {}, {}, {}, {}, {},
    {}, {}, {}, {}, {},
    {}, {}, {}, {}, {},
    {}, {}, {}, {}, {},
    {}, {}, {}, {}, {},
    {}, {}, {}, {}, {},
    {}, {}, {}, {}, {},
    {}, {}, {}, {}, {},
    {}, {}, {}, {}, {},
    {}, {}, {}, {}, {},
    {}, {}, {}, {}, {},
    {}, {}, {}, {}, {},
    {}, {}, {}, {}, {},
    {}, {}, {}, {}, {},
    {}, {}, {}, {}, {},
    {}, {}, {}, {}, {},
    {}, {}, {}, {}, {},
    {}, {}, {}, {}, {},
    {}, {}, {}, {}, {},
    {}, {}, {}, {}, {},
    {}, {}, {}, {}, {},
    {}, {}, {}, {}, {},
    {}, {}, {}, {}, {},
    {}, {}, {}, {}, {},
    {}, {}, {}, {}, {},
    {}, {}, {}, {}, {},
    {}, {}, {}, {}, {},
    {}, {}, {}, {}, {},
    {}, {}, {}, {}, {},
    {}, {}, {}, {}, {},
    {}, {}, {}, {}, {},
    {}, {}, {}, {}, {},
    {}, {}, {}, {}, {},
    {}, {}, {}, {}, {},
    {}, {}, {}, {}, {},
    {}, {}, {}, {}, {},
    {}, {}, {}, {}, {},
    {}, {}, {}, {}, {},
    {}, {}, {}, {}, {},
    {}, {}, {}, {}, {},
    {}, {}, {}, {}, {},
    {}, {}, {}, {}, {},
    {}, {}, {}, {}, {},
    {}, {}, {}, {}, {},
    {}, {}, {}, {}, {},
    {}, {}, {}, {}, {},
    {}, {}, {}, {}, {},
    {}, {}, {}, {}, {},
    {}, {}, {}, {}, {},
    {}, {}, {}, {}, {},
    {}, {}, {}, {}, {},
    {}, {}, {}, {}, {},
    {}, {}, {}, {}, {},
    {}, {}, {}, {}, {},
    {}, {}, {}, {}, {},
    {}, {}, {}, {}, {},
    {}, {}, {}, {}, {},
    {}, {}, {}, {}, {},
    {}, {}, {}, {}, {},
    {}, {}, {}, {}, {},
    {}, {}, {}, {}, {},
    {}, {}, {}, {}, {},
    {}, {}, {}, {}, {},
    {}, {}, {}, {}, {},
    {}, {}, {}, {}, {},
    {}, {}, {}, {}, {},
    {}, {}, {}, {}, {},
    {}, {}, {}, {}, {},
    {}, {}, {}, {}, {},
    {}, {}, {}, {}, {},
    {}, {}, {}, {}, {},
    {}, {}, {}, {}, {},
    {}, {}, {}, {}, {},
    {}, {}, {}, {}, {},
    {}, {}, {}, {}, {},
    {}, {}, {}, {}, {},
    {}, {}, {}, {}, {},
    {}, {}, {}, {}, {},
    {}, {}, {}, {}, {},
    {}, {}, {}, {}, {},
    {}, {}, {}, {}, {},
    {}, {}, {}, {}, {},
    {}, {}, {}, {}, {},
    {}, {}, {}, {}, {},
    {}, {}, {}, {}, {},
    {}, {}, {}, {}, {},
    {}, {}, {}, {}, {},
    {}, {}, {}, {}, {},
    {}, {}, {}, {}, {},
    {}, {}, {}, {}, {},
    {}, {}, {}, {}, {},
    {}, {}, {}, {}, {},
    {}, {}, {}, {}, {},
    {}, {}, {}, {}, {},
    {}, {}, {}, {}, {},
    {}, {}, {}, {}, {},
    {}, {}, {}, {}, {},
    {}, {}, {}, {}, {},
    {}, {}, {}, {}, {},
    {}, {}, {}, {}, {},
    {}, {}, {}, {}, {},
    {}, {}, {}, {}, {},
    {}, {}, {}, {}, {},
    {}, {}, {}, {}, {},
    {}, {}, {}, {}, {},
    {}, {}, {}, {}, {},
    {}, {}, {}, {}, {},
    {}, {}, {}, {}, {},
    {}, {}, {}, {}, {},
    {}, {}, {}, {}, {},
    {}, {}, {}, {}, {},
    {}, {}, {}, {}, {}
]);
